
Gurobi 9.1.1 (win64) logging started Sun Mar  7 15:22:27 2021

Changed value of parameter LogFile to ../results/logs/log_samuel_kroger_2021_03_07_15_22_27.csv_2_2.log
   Prev:   Default: 
Changed value of parameter lazyConstraints to 1
   Prev: 0  Min: 0  Max: 1  Default: 0
Gurobi Optimizer version 9.1.1 build v9.1.1rc0 (win64)
Thread count: 6 physical cores, 12 logical processors, using up to 12 threads
Optimize a model with 40 rows, 78 columns and 117 nonzeros
Model fingerprint: 0x5d723d7f
Variable types: 0 continuous, 78 integer (78 binary)
Coefficient statistics:
  Matrix range     [1e+00, 1e+00]
  Objective range  [1e+00, 1e+00]
  Bounds range     [1e+00, 1e+00]
  RHS range        [1e+00, 2e+00]

User MIP start did not produce a new incumbent solution

Found heuristic solution: objective 38.0000000
Presolve removed 1 rows and 1 columns
Presolve time: 0.00s
Presolved: 39 rows, 77 columns, 115 nonzeros
Variable types: 0 continuous, 77 integer (77 binary)

Root relaxation: objective 3.900000e+01, 40 iterations, 0.00 seconds

    Nodes    |    Current Node    |     Objective Bounds      |     Work
 Expl Unexpl |  Obj  Depth IntInf | Incumbent    BestBd   Gap | It/Node Time

*    0     0               0      39.0000000   39.00000  0.00%     -    0s

Explored 0 nodes (40 simplex iterations) in 0.01 seconds
Thread count was 12 (of 12 available processors)

Solution count 2: 39 38 

Optimal solution found (tolerance 1.00e-04)
Best objective 3.900000000000e+01, best bound 3.900000000000e+01, gap 0.0000%

User-callback calls 46, time in user-callback 0.00 sec

Gurobi 9.1.1 (win64) logging started Sun Mar  7 15:22:27 2021

Changed value of parameter LogFile to ../results/logs/log_samuel_kroger_2021_03_07_15_22_27.csv_2_2.log
   Prev:   Default: 
Gurobi Optimizer version 9.1.1 build v9.1.1rc0 (win64)
Thread count: 6 physical cores, 12 logical processors, using up to 12 threads
Optimize a model with 77 rows, 78 columns and 659 nonzeros
Model fingerprint: 0xdb7d5ed0
Variable types: 0 continuous, 78 integer (78 binary)
Coefficient statistics:
  Matrix range     [1e+00, 2e+00]
  Objective range  [1e+00, 1e+00]
  Bounds range     [1e+00, 1e+00]
  RHS range        [1e+00, 2e+00]

User MIP start produced solution with objective 39 (0.00s)
Loaded user MIP start with objective 39

Presolve removed 0 rows and 1 columns
Presolve time: 0.00s
Presolved: 77 rows, 77 columns, 658 nonzeros
Variable types: 0 continuous, 77 integer (77 binary)

Root relaxation: cutoff, 0 iterations, 0.00 seconds

Explored 0 nodes (0 simplex iterations) in 0.01 seconds
Thread count was 12 (of 12 available processors)

Solution count 1: 39 

Optimal solution found (tolerance 1.00e-04)
Best objective 3.900000000000e+01, best bound 3.900000000000e+01, gap 0.0000%

Gurobi 9.1.1 (win64) logging started Sun Mar  7 15:22:27 2021

Changed value of parameter LogFile to ../results/logs/log_samuel_kroger_2021_03_07_15_22_27.csv_2_2.log
   Prev:   Default: 
Changed value of parameter lazyConstraints to 1
   Prev: 0  Min: 0  Max: 1  Default: 0
Gurobi Optimizer version 9.1.1 build v9.1.1rc0 (win64)
Thread count: 6 physical cores, 12 logical processors, using up to 12 threads
Optimize a model with 116 rows, 230 columns and 345 nonzeros
Model fingerprint: 0x14747ec2
Variable types: 0 continuous, 230 integer (230 binary)
Coefficient statistics:
  Matrix range     [1e+00, 1e+00]
  Objective range  [1e+00, 1e+00]
  Bounds range     [1e+00, 1e+00]
  RHS range        [1e+00, 2e+00]
Found heuristic solution: objective 115.0000000
Presolve time: 0.00s
Presolved: 116 rows, 230 columns, 345 nonzeros
Variable types: 0 continuous, 230 integer (230 binary)

Root relaxation: cutoff, 116 iterations, 0.00 seconds

    Nodes    |    Current Node    |     Objective Bounds      |     Work
 Expl Unexpl |  Obj  Depth IntInf | Incumbent    BestBd   Gap | It/Node Time

     0     0     cutoff    0       115.00000  115.00000  0.00%     -    0s

Explored 0 nodes (116 simplex iterations) in 0.01 seconds
Thread count was 12 (of 12 available processors)

Solution count 1: 115 

Optimal solution found (tolerance 1.00e-04)
Best objective 1.150000000000e+02, best bound 1.150000000000e+02, gap 0.0000%

User-callback calls 40, time in user-callback 0.00 sec

Gurobi 9.1.1 (win64) logging started Sun Mar  7 15:22:27 2021

Changed value of parameter LogFile to ../results/logs/log_samuel_kroger_2021_03_07_15_22_27.csv_2_2.log
   Prev:   Default: 
Gurobi Optimizer version 9.1.1 build v9.1.1rc0 (win64)
Thread count: 6 physical cores, 12 logical processors, using up to 12 threads
Optimize a model with 231 rows, 230 columns and 2988 nonzeros
Model fingerprint: 0xecf713d5
Variable types: 0 continuous, 230 integer (230 binary)
Coefficient statistics:
  Matrix range     [1e+00, 2e+00]
  Objective range  [1e+00, 1e+00]
  Bounds range     [1e+00, 1e+00]
  RHS range        [1e+00, 2e+00]
Found heuristic solution: objective 2.0000000
Found heuristic solution: objective 89.0000000
Presolve time: 0.01s
Presolved: 231 rows, 230 columns, 2988 nonzeros
Variable types: 0 continuous, 230 integer (230 binary)

Root relaxation: objective 1.150000e+02, 0 iterations, 0.00 seconds

    Nodes    |    Current Node    |     Objective Bounds      |     Work
 Expl Unexpl |  Obj  Depth IntInf | Incumbent    BestBd   Gap | It/Node Time

*    0     0               0     115.0000000  115.00000  0.00%     -    0s

Explored 0 nodes (0 simplex iterations) in 0.01 seconds
Thread count was 12 (of 12 available processors)

Solution count 3: 115 89 2 

Optimal solution found (tolerance 1.00e-04)
Best objective 1.150000000000e+02, best bound 1.150000000000e+02, gap 0.0000%

Gurobi 9.1.1 (win64) logging started Sun Mar  7 15:22:28 2021

Changed value of parameter LogFile to ../results/logs/log_samuel_kroger_2021_03_07_15_22_27.csv_2_2.log
   Prev:   Default: 
Changed value of parameter lazyConstraints to 1
   Prev: 0  Min: 0  Max: 1  Default: 0
Gurobi Optimizer version 9.1.1 build v9.1.1rc0 (win64)
Thread count: 6 physical cores, 12 logical processors, using up to 12 threads
Optimize a model with 20 rows, 32 columns and 65 nonzeros
Model fingerprint: 0x853ffea1
Variable types: 0 continuous, 32 integer (32 binary)
Coefficient statistics:
  Matrix range     [1e+00, 1e+00]
  Objective range  [1e+00, 1e+00]
  Bounds range     [1e+00, 1e+00]
  RHS range        [1e+00, 2e+00]

User MIP start produced solution with objective 7 (0.00s)
Loaded user MIP start with objective 7

Presolve removed 8 rows and 8 columns
Presolve time: 0.00s
Presolved: 12 rows, 24 columns, 41 nonzeros
Variable types: 0 continuous, 24 integer (24 binary)

Root relaxation: objective 1.000000e+01, 2 iterations, 0.00 seconds

    Nodes    |    Current Node    |     Objective Bounds      |     Work
 Expl Unexpl |  Obj  Depth IntInf | Incumbent    BestBd   Gap | It/Node Time

     0     0   10.00000    0    6    7.00000   10.00000  42.9%     -    0s
     0     0   10.00000    0    5    7.00000   10.00000  42.9%     -    0s
H    0     0                       8.0000000   10.00000  25.0%     -    0s
     0     0   10.00000    0    4    8.00000   10.00000  25.0%     -    0s
     0     0   10.00000    0    4    8.00000   10.00000  25.0%     -    0s
     0     2   10.00000    0    4    8.00000   10.00000  25.0%     -    0s

Cutting planes:
  Gomory: 2
  Lazy constraints: 225

Explored 120 nodes (286 simplex iterations) in 0.09 seconds
Thread count was 12 (of 12 available processors)

Solution count 2: 8 7 

Optimal solution found (tolerance 1.00e-04)
Best objective 8.000000000000e+00, best bound 8.000000000000e+00, gap 0.0000%

User-callback calls 412, time in user-callback 0.05 sec

Gurobi 9.1.1 (win64) logging started Sun Mar  7 15:22:28 2021

Changed value of parameter LogFile to ../results/logs/log_samuel_kroger_2021_03_07_15_22_27.csv_2_2.log
   Prev:   Default: 
Gurobi Optimizer version 9.1.1 build v9.1.1rc0 (win64)
Thread count: 6 physical cores, 12 logical processors, using up to 12 threads
Optimize a model with 17 rows, 32 columns and 88 nonzeros
Model fingerprint: 0x79b429d0
Variable types: 0 continuous, 32 integer (32 binary)
Coefficient statistics:
  Matrix range     [1e+00, 2e+00]
  Objective range  [1e+00, 1e+00]
  Bounds range     [1e+00, 1e+00]
  RHS range        [1e+00, 2e+00]

User MIP start produced solution with objective 7 (0.00s)
Loaded user MIP start with objective 7

Presolve removed 0 rows and 12 columns
Presolve time: 0.00s
Presolved: 17 rows, 20 columns, 72 nonzeros
Variable types: 0 continuous, 20 integer (16 binary)

Root relaxation: objective 9.000000e+00, 5 iterations, 0.00 seconds

    Nodes    |    Current Node    |     Objective Bounds      |     Work
 Expl Unexpl |  Obj  Depth IntInf | Incumbent    BestBd   Gap | It/Node Time

     0     0    9.00000    0    2    7.00000    9.00000  28.6%     -    0s
H    0     0                       8.0000000    9.00000  12.5%     -    0s

Cutting planes:
  Implied bound: 1

Explored 1 nodes (5 simplex iterations) in 0.01 seconds
Thread count was 12 (of 12 available processors)

Solution count 2: 8 7 

Optimal solution found (tolerance 1.00e-04)
Best objective 8.000000000000e+00, best bound 8.000000000000e+00, gap 0.0000%

Gurobi 9.1.1 (win64) logging started Sun Mar  7 15:22:28 2021

Changed value of parameter LogFile to ../results/logs/log_samuel_kroger_2021_03_07_15_22_27.csv_2_2.log
   Prev:   Default: 
Changed value of parameter lazyConstraints to 1
   Prev: 0  Min: 0  Max: 1  Default: 0
Gurobi Optimizer version 9.1.1 build v9.1.1rc0 (win64)
Thread count: 6 physical cores, 12 logical processors, using up to 12 threads
Optimize a model with 35 rows, 68 columns and 102 nonzeros
Model fingerprint: 0x595b6b52
Variable types: 0 continuous, 68 integer (68 binary)
Coefficient statistics:
  Matrix range     [1e+00, 1e+00]
  Objective range  [1e+00, 1e+00]
  Bounds range     [1e+00, 1e+00]
  RHS range        [1e+00, 2e+00]

User MIP start did not produce a new incumbent solution

Found heuristic solution: objective 33.0000000
Presolve removed 1 rows and 1 columns
Presolve time: 0.00s
Presolved: 34 rows, 67 columns, 100 nonzeros
Variable types: 0 continuous, 67 integer (67 binary)

Root relaxation: objective 3.400000e+01, 35 iterations, 0.00 seconds

    Nodes    |    Current Node    |     Objective Bounds      |     Work
 Expl Unexpl |  Obj  Depth IntInf | Incumbent    BestBd   Gap | It/Node Time

*    0     0               0      34.0000000   34.00000  0.00%     -    0s

Explored 0 nodes (35 simplex iterations) in 0.00 seconds
Thread count was 12 (of 12 available processors)

Solution count 2: 34 33 

Optimal solution found (tolerance 1.00e-04)
Best objective 3.400000000000e+01, best bound 3.400000000000e+01, gap 0.0000%

User-callback calls 45, time in user-callback 0.00 sec

Gurobi 9.1.1 (win64) logging started Sun Mar  7 15:22:28 2021

Changed value of parameter LogFile to ../results/logs/log_samuel_kroger_2021_03_07_15_22_27.csv_2_2.log
   Prev:   Default: 
Gurobi Optimizer version 9.1.1 build v9.1.1rc0 (win64)
Thread count: 6 physical cores, 12 logical processors, using up to 12 threads
Optimize a model with 67 rows, 68 columns and 443 nonzeros
Model fingerprint: 0x4bcd4693
Variable types: 0 continuous, 68 integer (68 binary)
Coefficient statistics:
  Matrix range     [1e+00, 2e+00]
  Objective range  [1e+00, 1e+00]
  Bounds range     [1e+00, 1e+00]
  RHS range        [1e+00, 2e+00]

User MIP start produced solution with objective 34 (0.00s)
Loaded user MIP start with objective 34

Presolve removed 0 rows and 1 columns
Presolve time: 0.00s
Presolved: 67 rows, 67 columns, 442 nonzeros
Variable types: 0 continuous, 67 integer (67 binary)

Root relaxation: cutoff, 0 iterations, 0.00 seconds

Explored 0 nodes (0 simplex iterations) in 0.00 seconds
Thread count was 12 (of 12 available processors)

Solution count 1: 34 

Optimal solution found (tolerance 1.00e-04)
Best objective 3.400000000000e+01, best bound 3.400000000000e+01, gap 0.0000%

Gurobi 9.1.1 (win64) logging started Sun Mar  7 15:22:28 2021

Changed value of parameter LogFile to ../results/logs/log_samuel_kroger_2021_03_07_15_22_27.csv_2_2.log
   Prev:   Default: 
Changed value of parameter lazyConstraints to 1
   Prev: 0  Min: 0  Max: 1  Default: 0
Gurobi Optimizer version 9.1.1 build v9.1.1rc0 (win64)
Thread count: 6 physical cores, 12 logical processors, using up to 12 threads
Optimize a model with 172 rows, 342 columns and 513 nonzeros
Model fingerprint: 0x6e2c5911
Variable types: 0 continuous, 342 integer (342 binary)
Coefficient statistics:
  Matrix range     [1e+00, 1e+00]
  Objective range  [1e+00, 1e+00]
  Bounds range     [1e+00, 1e+00]
  RHS range        [1e+00, 2e+00]
Found heuristic solution: objective 171.0000000
Presolve time: 0.00s
Presolved: 172 rows, 342 columns, 513 nonzeros
Variable types: 0 continuous, 342 integer (342 binary)

Root relaxation: cutoff, 173 iterations, 0.00 seconds

    Nodes    |    Current Node    |     Objective Bounds      |     Work
 Expl Unexpl |  Obj  Depth IntInf | Incumbent    BestBd   Gap | It/Node Time

     0     0     cutoff    0       171.00000  171.00000  0.00%     -    0s

Explored 0 nodes (173 simplex iterations) in 0.04 seconds
Thread count was 12 (of 12 available processors)

Solution count 1: 171 

Optimal solution found (tolerance 1.00e-04)
Best objective 1.710000000000e+02, best bound 1.710000000000e+02, gap 0.0000%

User-callback calls 41, time in user-callback 0.03 sec

Gurobi 9.1.1 (win64) logging started Sun Mar  7 15:22:28 2021

Changed value of parameter LogFile to ../results/logs/log_samuel_kroger_2021_03_07_15_22_27.csv_2_2.log
   Prev:   Default: 
Gurobi Optimizer version 9.1.1 build v9.1.1rc0 (win64)
Thread count: 6 physical cores, 12 logical processors, using up to 12 threads
Optimize a model with 343 rows, 342 columns and 38424 nonzeros
Model fingerprint: 0x58948f24
Variable types: 0 continuous, 342 integer (342 binary)
Coefficient statistics:
  Matrix range     [1e+00, 2e+00]
  Objective range  [1e+00, 1e+00]
  Bounds range     [1e+00, 1e+00]
  RHS range        [1e+00, 2e+00]
Found heuristic solution: objective 2.0000000
Found heuristic solution: objective 167.0000000
Presolve time: 0.09s
Presolved: 343 rows, 342 columns, 38424 nonzeros
Variable types: 0 continuous, 342 integer (342 binary)

Root relaxation: objective 1.710000e+02, 0 iterations, 0.00 seconds

    Nodes    |    Current Node    |     Objective Bounds      |     Work
 Expl Unexpl |  Obj  Depth IntInf | Incumbent    BestBd   Gap | It/Node Time

*    0     0               0     171.0000000  171.00000  0.00%     -    0s

Explored 0 nodes (0 simplex iterations) in 0.11 seconds
Thread count was 12 (of 12 available processors)

Solution count 3: 171 167 2 

Optimal solution found (tolerance 1.00e-04)
Best objective 1.710000000000e+02, best bound 1.710000000000e+02, gap 0.0000%

Gurobi 9.1.1 (win64) logging started Sun Mar  7 15:22:28 2021

Changed value of parameter LogFile to ../results/logs/log_samuel_kroger_2021_03_07_15_22_27.csv_2_2.log
   Prev:   Default: 
Changed value of parameter lazyConstraints to 1
   Prev: 0  Min: 0  Max: 1  Default: 0
Gurobi Optimizer version 9.1.1 build v9.1.1rc0 (win64)
Thread count: 6 physical cores, 12 logical processors, using up to 12 threads
Optimize a model with 17 rows, 32 columns and 48 nonzeros
Model fingerprint: 0x95ec293b
Variable types: 0 continuous, 32 integer (32 binary)
Coefficient statistics:
  Matrix range     [1e+00, 1e+00]
  Objective range  [1e+00, 1e+00]
  Bounds range     [1e+00, 1e+00]
  RHS range        [1e+00, 2e+00]
Found heuristic solution: objective 16.0000000
Presolve time: 0.00s
Presolved: 17 rows, 32 columns, 48 nonzeros
Variable types: 0 continuous, 32 integer (32 binary)

Root relaxation: cutoff, 17 iterations, 0.00 seconds

    Nodes    |    Current Node    |     Objective Bounds      |     Work
 Expl Unexpl |  Obj  Depth IntInf | Incumbent    BestBd   Gap | It/Node Time

     0     0     cutoff    0        16.00000   16.00000  0.00%     -    0s

Explored 0 nodes (17 simplex iterations) in 0.00 seconds
Thread count was 12 (of 12 available processors)

Solution count 1: 16 

Optimal solution found (tolerance 1.00e-04)
Best objective 1.600000000000e+01, best bound 1.600000000000e+01, gap 0.0000%

User-callback calls 39, time in user-callback 0.00 sec

Gurobi 9.1.1 (win64) logging started Sun Mar  7 15:22:28 2021

Changed value of parameter LogFile to ../results/logs/log_samuel_kroger_2021_03_07_15_22_27.csv_2_2.log
   Prev:   Default: 
Gurobi Optimizer version 9.1.1 build v9.1.1rc0 (win64)
Thread count: 6 physical cores, 12 logical processors, using up to 12 threads
Optimize a model with 33 rows, 32 columns and 256 nonzeros
Model fingerprint: 0x9411cef0
Variable types: 0 continuous, 32 integer (32 binary)
Coefficient statistics:
  Matrix range     [1e+00, 2e+00]
  Objective range  [1e+00, 1e+00]
  Bounds range     [1e+00, 1e+00]
  RHS range        [1e+00, 2e+00]
Found heuristic solution: objective 2.0000000
Found heuristic solution: objective 9.0000000
Presolve time: 0.00s
Presolved: 33 rows, 32 columns, 256 nonzeros
Variable types: 0 continuous, 32 integer (32 binary)

Root relaxation: objective 1.600000e+01, 0 iterations, 0.00 seconds

    Nodes    |    Current Node    |     Objective Bounds      |     Work
 Expl Unexpl |  Obj  Depth IntInf | Incumbent    BestBd   Gap | It/Node Time

*    0     0               0      16.0000000   16.00000  0.00%     -    0s

Explored 0 nodes (0 simplex iterations) in 0.01 seconds
Thread count was 12 (of 12 available processors)

Solution count 3: 16 9 2 

Optimal solution found (tolerance 1.00e-04)
Best objective 1.600000000000e+01, best bound 1.600000000000e+01, gap 0.0000%

Gurobi 9.1.1 (win64) logging started Sun Mar  7 15:22:28 2021

Changed value of parameter LogFile to ../results/logs/log_samuel_kroger_2021_03_07_15_22_27.csv_2_2.log
   Prev:   Default: 
Changed value of parameter lazyConstraints to 1
   Prev: 0  Min: 0  Max: 1  Default: 0
Gurobi Optimizer version 9.1.1 build v9.1.1rc0 (win64)
Thread count: 6 physical cores, 12 logical processors, using up to 12 threads
Optimize a model with 106 rows, 210 columns and 315 nonzeros
Model fingerprint: 0xf175ff8e
Variable types: 0 continuous, 210 integer (210 binary)
Coefficient statistics:
  Matrix range     [1e+00, 1e+00]
  Objective range  [1e+00, 1e+00]
  Bounds range     [1e+00, 1e+00]
  RHS range        [1e+00, 2e+00]
Found heuristic solution: objective 105.0000000
Presolve time: 0.00s
Presolved: 106 rows, 210 columns, 315 nonzeros
Variable types: 0 continuous, 210 integer (210 binary)

Root relaxation: cutoff, 106 iterations, 0.00 seconds

    Nodes    |    Current Node    |     Objective Bounds      |     Work
 Expl Unexpl |  Obj  Depth IntInf | Incumbent    BestBd   Gap | It/Node Time

     0     0     cutoff    0       105.00000  105.00000  0.00%     -    0s

Explored 0 nodes (106 simplex iterations) in 0.01 seconds
Thread count was 12 (of 12 available processors)

Solution count 1: 105 

Optimal solution found (tolerance 1.00e-04)
Best objective 1.050000000000e+02, best bound 1.050000000000e+02, gap 0.0000%

User-callback calls 39, time in user-callback 0.00 sec

Gurobi 9.1.1 (win64) logging started Sun Mar  7 15:22:28 2021

Changed value of parameter LogFile to ../results/logs/log_samuel_kroger_2021_03_07_15_22_27.csv_2_2.log
   Prev:   Default: 
Gurobi Optimizer version 9.1.1 build v9.1.1rc0 (win64)
Thread count: 6 physical cores, 12 logical processors, using up to 12 threads
Optimize a model with 211 rows, 210 columns and 2184 nonzeros
Model fingerprint: 0x8b778427
Variable types: 0 continuous, 210 integer (210 binary)
Coefficient statistics:
  Matrix range     [1e+00, 2e+00]
  Objective range  [1e+00, 1e+00]
  Bounds range     [1e+00, 1e+00]
  RHS range        [1e+00, 2e+00]
Found heuristic solution: objective 2.0000000
Found heuristic solution: objective 79.0000000
Presolve time: 0.00s
Presolved: 211 rows, 210 columns, 2184 nonzeros
Variable types: 0 continuous, 210 integer (210 binary)

Root relaxation: objective 1.050000e+02, 0 iterations, 0.00 seconds

    Nodes    |    Current Node    |     Objective Bounds      |     Work
 Expl Unexpl |  Obj  Depth IntInf | Incumbent    BestBd   Gap | It/Node Time

*    0     0               0     105.0000000  105.00000  0.00%     -    0s

Explored 0 nodes (0 simplex iterations) in 0.01 seconds
Thread count was 12 (of 12 available processors)

Solution count 3: 105 79 2 

Optimal solution found (tolerance 1.00e-04)
Best objective 1.050000000000e+02, best bound 1.050000000000e+02, gap 0.0000%

Gurobi 9.1.1 (win64) logging started Sun Mar  7 15:22:28 2021

Changed value of parameter LogFile to ../results/logs/log_samuel_kroger_2021_03_07_15_22_27.csv_2_2.log
   Prev:   Default: 
Changed value of parameter lazyConstraints to 1
   Prev: 0  Min: 0  Max: 1  Default: 0
Gurobi Optimizer version 9.1.1 build v9.1.1rc0 (win64)
Thread count: 6 physical cores, 12 logical processors, using up to 12 threads
Optimize a model with 301 rows, 600 columns and 900 nonzeros
Model fingerprint: 0x11f09961
Variable types: 0 continuous, 600 integer (600 binary)
Coefficient statistics:
  Matrix range     [1e+00, 1e+00]
  Objective range  [1e+00, 1e+00]
  Bounds range     [1e+00, 1e+00]
  RHS range        [1e+00, 2e+00]
Found heuristic solution: objective 300.0000000
Presolve time: 0.00s
Presolved: 301 rows, 600 columns, 900 nonzeros
Variable types: 0 continuous, 600 integer (600 binary)

Root relaxation: cutoff, 303 iterations, 0.00 seconds

    Nodes    |    Current Node    |     Objective Bounds      |     Work
 Expl Unexpl |  Obj  Depth IntInf | Incumbent    BestBd   Gap | It/Node Time

     0     0     cutoff    0       300.00000  300.00000  0.00%     -    0s

Explored 0 nodes (303 simplex iterations) in 0.05 seconds
Thread count was 12 (of 12 available processors)

Solution count 1: 300 

Optimal solution found (tolerance 1.00e-04)
Best objective 3.000000000000e+02, best bound 3.000000000000e+02, gap 0.0000%

User-callback calls 43, time in user-callback 0.04 sec

Gurobi 9.1.1 (win64) logging started Sun Mar  7 15:22:29 2021

Changed value of parameter LogFile to ../results/logs/log_samuel_kroger_2021_03_07_15_22_27.csv_2_2.log
   Prev:   Default: 
Gurobi Optimizer version 9.1.1 build v9.1.1rc0 (win64)
Thread count: 6 physical cores, 12 logical processors, using up to 12 threads
Optimize a model with 601 rows, 600 columns and 44932 nonzeros
Model fingerprint: 0x32b5c60b
Variable types: 0 continuous, 600 integer (600 binary)
Coefficient statistics:
  Matrix range     [1e+00, 2e+00]
  Objective range  [1e+00, 1e+00]
  Bounds range     [1e+00, 1e+00]
  RHS range        [1e+00, 2e+00]
Found heuristic solution: objective 2.0000000
Found heuristic solution: objective 293.0000000
Presolve time: 0.23s
Presolved: 601 rows, 600 columns, 44932 nonzeros
Variable types: 0 continuous, 600 integer (600 binary)

Root relaxation: objective 3.000000e+02, 0 iterations, 0.00 seconds

    Nodes    |    Current Node    |     Objective Bounds      |     Work
 Expl Unexpl |  Obj  Depth IntInf | Incumbent    BestBd   Gap | It/Node Time

*    0     0               0     300.0000000  300.00000  0.00%     -    0s

Explored 0 nodes (0 simplex iterations) in 0.26 seconds
Thread count was 12 (of 12 available processors)

Solution count 3: 300 293 2 

Optimal solution found (tolerance 1.00e-04)
Best objective 3.000000000000e+02, best bound 3.000000000000e+02, gap 0.0000%

Gurobi 9.1.1 (win64) logging started Sun Mar  7 15:22:29 2021

Changed value of parameter LogFile to ../results/logs/log_samuel_kroger_2021_03_07_15_22_27.csv_2_2.log
   Prev:   Default: 
Changed value of parameter lazyConstraints to 1
   Prev: 0  Min: 0  Max: 1  Default: 0
Gurobi Optimizer version 9.1.1 build v9.1.1rc0 (win64)
Thread count: 6 physical cores, 12 logical processors, using up to 12 threads
Optimize a model with 7 rows, 12 columns and 18 nonzeros
Model fingerprint: 0x74e7518e
Variable types: 0 continuous, 12 integer (12 binary)
Coefficient statistics:
  Matrix range     [1e+00, 1e+00]
  Objective range  [1e+00, 1e+00]
  Bounds range     [1e+00, 1e+00]
  RHS range        [1e+00, 2e+00]

User MIP start did not produce a new incumbent solution

Found heuristic solution: objective 6.0000000
Presolve removed 1 rows and 1 columns
Presolve time: 0.00s
Presolved: 6 rows, 11 columns, 16 nonzeros
Variable types: 0 continuous, 11 integer (11 binary)

Root relaxation: cutoff, 7 iterations, 0.00 seconds

    Nodes    |    Current Node    |     Objective Bounds      |     Work
 Expl Unexpl |  Obj  Depth IntInf | Incumbent    BestBd   Gap | It/Node Time

     0     0     cutoff    0         6.00000    6.00000  0.00%     -    0s

Explored 0 nodes (7 simplex iterations) in 0.00 seconds
Thread count was 12 (of 12 available processors)

Solution count 1: 6 

Optimal solution found (tolerance 1.00e-04)
Best objective 6.000000000000e+00, best bound 6.000000000000e+00, gap 0.0000%

User-callback calls 45, time in user-callback 0.00 sec

Gurobi 9.1.1 (win64) logging started Sun Mar  7 15:22:29 2021

Changed value of parameter LogFile to ../results/logs/log_samuel_kroger_2021_03_07_15_22_27.csv_2_2.log
   Prev:   Default: 
Gurobi Optimizer version 9.1.1 build v9.1.1rc0 (win64)
Thread count: 6 physical cores, 12 logical processors, using up to 12 threads
Optimize a model with 11 rows, 12 columns and 47 nonzeros
Model fingerprint: 0xe56be0cc
Variable types: 0 continuous, 12 integer (12 binary)
Coefficient statistics:
  Matrix range     [1e+00, 2e+00]
  Objective range  [1e+00, 1e+00]
  Bounds range     [1e+00, 1e+00]
  RHS range        [1e+00, 2e+00]

User MIP start produced solution with objective 6 (0.00s)
Loaded user MIP start with objective 6

Presolve removed 0 rows and 1 columns
Presolve time: 0.00s
Presolved: 11 rows, 11 columns, 46 nonzeros
Variable types: 0 continuous, 11 integer (11 binary)

Root relaxation: cutoff, 0 iterations, 0.00 seconds

Explored 0 nodes (0 simplex iterations) in 0.00 seconds
Thread count was 12 (of 12 available processors)

Solution count 1: 6 

Optimal solution found (tolerance 1.00e-04)
Best objective 6.000000000000e+00, best bound 6.000000000000e+00, gap 0.0000%
